proyfinal/src/viki/013/experimentInOfficeAgust.take6.output/3ee7003b-80b6-4c36-80ab-fe7b88ca49ea.als.out
Reading from standard input... Use '--help' for help.
============================[ Problem Statistics ]=============================
|                                                                             |
|  Number of variables:         87638                                         |
|  Number of clauses:          161767                                         |
|  Parse time:                   0.04 s                                       |
|                                                                             |
============================[ Search Statistics ]==============================
| Conflicts |          ORIGINAL         |          LEARNT          | Progress |
|           |    Vars  Clauses Literals |    Limit  Clauses Lit/Cl |          |
===============================================================================
|       100 |   62257   104683   261619 |    38383      100      9 | 28.961 % |
|       250 |   62257   104683   261619 |    42222      250     13 | 28.961 % |
|       475 |   62257   104683   261619 |    46444      475     37 | 28.961 % |
|       812 |   62257   104683   261619 |    51088      812     53 | 28.961 % |
|      1318 |   62257   104683   261619 |    56197     1318     68 | 28.961 % |
|      2077 |   62257   104683   261619 |    61817     2077     70 | 28.961 % |
|      3216 |   62257   104683   261619 |    67999     3216     70 | 28.961 % |
===============================================================================
restarts              : 16
conflicts             : 3317           (6533 /sec)
decisions             : 9466           (0.00 % random) (18644 /sec)
propagations          : 6194264        (12200037 /sec)
conflict literals     : 225893         (56.65 % deleted)
Memory used           : 23.79 MB
CPU time              : 0.507725 s

UNSATISFIABLE
